(declare-const in20 Int)
(declare-const in22 Int)
(declare-const in21 Int)
(declare-const in24 Int)
(declare-const in23 Int)
(declare-const in26 Int)
(declare-const in25 Int)
(declare-const in28 Int)
(declare-const in27 Int)
(declare-const in0 Int)
(declare-const in2 Int)
(declare-const in1 Int)
(declare-const in4 Int)
(declare-const in3 Int)
(declare-const in6 Int)
(declare-const in5 Int)
(declare-const in8 Int)
(declare-const in7 Int)
(declare-const in11 Int)
(declare-const in10 Int)
(declare-const in9 Int)
(declare-const in13 Int)
(declare-const in12 Int)
(declare-const in15 Int)
(declare-const in14 Int)
(declare-const in17 Int)
(declare-const in16 Int)
(declare-const in19 Int)
(declare-const in18 Int)

(assert (and (and (and (and (and (and (and (and (and (and (and (and (and (and (and (and (and (and (and (and (and (and (and (and (and (and (and (and (and (and (and (and (and (and (and (and (and (and (and (and (and (and (and (and (and (and (and (and (and (and (and (and (and (and (and (and (and (not ( = ( mod  in0 2) 0))  ( =  ( mod  in0 3) 0)) (not ( = ( mod  in1 2) 0)))  ( =  ( mod  in1 3) 0)) (not ( = ( mod  in2 2) 0)))  ( =  ( mod  in2 3) 0)) (not ( = ( mod  in3 2) 0)))  ( =  ( mod  in3 3) 0)) (not ( = ( mod  in4 2) 0)))  ( =  ( mod  in4 3) 0)) (not ( = ( mod  in5 2) 0)))  ( =  ( mod  in5 3) 0)) (not ( = ( mod  in6 2) 0)))  ( =  ( mod  in6 3) 0)) (not ( = ( mod  in7 2) 0)))  ( =  ( mod  in7 3) 0)) (not ( = ( mod  in8 2) 0)))  ( =  ( mod  in8 3) 0)) (not ( = ( mod  in9 2) 0)))  ( =  ( mod  in9 3) 0)) (not ( = ( mod  in10 2) 0)))  ( =  ( mod  in10 3) 0)) (not ( = ( mod  in11 2) 0)))  ( =  ( mod  in11 3) 0)) (not ( = ( mod  in12 2) 0)))  ( =  ( mod  in12 3) 0)) (not ( = ( mod  in13 2) 0)))  ( =  ( mod  in13 3) 0)) (not ( = ( mod  in14 2) 0)))  ( =  ( mod  in14 3) 0)) (not ( = ( mod  in15 2) 0)))  ( =  ( mod  in15 3) 0)) (not ( = ( mod  in16 2) 0)))  ( =  ( mod  in16 3) 0)) (not ( = ( mod  in17 2) 0)))  ( =  ( mod  in17 3) 0)) (not ( = ( mod  in18 2) 0)))  ( =  ( mod  in18 3) 0)) (not ( = ( mod  in19 2) 0)))  ( =  ( mod  in19 3) 0)) (not ( = ( mod  in20 2) 0)))  ( =  ( mod  in20 3) 0)) (not ( = ( mod  in21 2) 0)))  ( =  ( mod  in21 3) 0)) (not ( = ( mod  in22 2) 0)))  ( =  ( mod  in22 3) 0)) (not ( = ( mod  in23 2) 0)))  ( =  ( mod  in23 3) 0)) (not ( = ( mod  in24 2) 0)))  ( =  ( mod  in24 3) 0)) (not ( = ( mod  in25 2) 0)))  ( =  ( mod  in25 3) 0)) (not ( = ( mod  in26 2) 0)))  ( =  ( mod  in26 3) 0)) (not ( = ( mod  in27 2) 0)))  ( =  ( mod  in27 3) 0)) (not ( = ( mod  in28 2) 0)))  ( =  ( mod  in28 3) 0)))

(check-sat)
(get-model)